networks/zoo_132_2574/zoo_132_2574.txt
Number of groups: 68
Flow 108: {3 62} {62 2} {2 68} 
Flow 205: {62 61} {61 56} {56 122} 
Flow 207: {59 125} 
Flow 211: {46 63} {63 129} 
Flow 221: {5 8} 
Flow 322: {46 37} {37 103} 
Flow 364: {8 5} {5 23} {23 89} 
Flow 368: {8 2} {2 46} {46 26} {26 33} {33 99} 
Flow 396: {9 46} {46 27} {27 93} 
Flow 412: {10 46} {46 2} {2 4} {4 6} {6 72} 
Flow 491: {12 1} {1 4} {4 11} {11 48} {48 114} 
Flow 526: {13 20} {20 30} {30 96} 
Flow 560: {14 20} {20 15} {15 81} 
Flow 602: {15 20} {20 26} {26 34} {34 100} 
Flow 655: {21 45} {45 111} 
Flow 657: {16 20} {20 2} {2 7} {7 47} {47 113} 
Flow 715: {1 51} {51 117} 
Flow 742: {18 17} {17 26} {26 25} {25 91} 
Flow 817: {20 46} {46 9} {9 75} 
Flow 833: {26 92} 
Flow 946: {22 2} {2 62} {62 58} {58 124} 
Flow 953: {23 5} {5 7} {7 61} {61 127} 
Flow 954: {24 5} 
Flow 1092: {27 46} {46 20} {20 44} {44 110} 
Flow 1135: {28 46} {46 25} {25 35} {35 101} 
Flow 1168: {29 20} {20 14} {14 80} 
Flow 1238: {30 20} {20 21} {21 42} {42 108} 
Flow 1267: {31 20} {20 86} 
Flow 1308: {32 26} {26 46} {46 28} {28 94} 
Flow 1346: {33 26} {26 17} {17 18} {18 84} 
Flow 1384: {34 26} {26 20} {20 13} {13 79} 
Flow 1445: {35 25} {25 26} {26 32} {32 98} 
Flow 1448: {25 46} {46 36} {36 102} 
Flow 1468: {36 46} 
Flow 1515: {37 46} {46 112} 
Flow 1577: {38 19} {19 17} {17 60} {60 65} {65 131} 
Flow 1585: {39 17} {17 83} 
Flow 1615: {40 19} {19 2} {2 20} {20 29} {29 95} 
Flow 1654: {41 19} {19 85} 
Flow 1668: {6 50} {50 116} 
Flow 1700: {42 21} {21 20} {20 31} {31 97} 
Flow 1730: {43 21} {21 2} {2 8} {8 74} 
Flow 1778: {44 20} {20 16} {16 82} 
Flow 1838: {45 21} {21 43} {43 109} 
Flow 1948: {47 7} {7 53} {53 119} 
Flow 1960: {48 11} {11 7} {7 73} 
Flow 1980: {49 4} {4 62} {62 128} 
Flow 1981: {50 6} {6 4} {4 1} {1 67} 
Flow 2052: {51 1} {1 7} {7 52} {52 118} 
Flow 2065: {52 7} {7 11} {11 77} 
Flow 2075: {53 7} {7 5} {5 71} 
Flow 2138: {54 11} {11 55} {55 121} 
Flow 2157: {55 11} {11 4} {4 2} {2 21} {21 87} 
Flow 2205: {56 61} {61 60} {60 66} {66 132} 
Flow 2254: {57 60} {60 61} {61 64} {64 130} 
Flow 2277: {58 62} {62 59} {59 60} {60 126} 
Flow 2319: {17 39} {39 105} 
Flow 2320: {17 19} {19 41} {41 107} 
Flow 2342: {61 62} {62 3} {3 69} 
Flow 2363: {5 24} {24 90} 
Flow 2378: {7 2} {2 19} {19 40} {40 106} 
Flow 2423: {2 22} {22 88} 
Flow 2438: {19 38} {38 104} 
Flow 2449: {4 49} {49 115} 
Flow 2471: {63 46} {46 10} {10 76} 
Flow 2516: {64 61} {61 7} {7 1} {1 12} {12 78} 
Flow 2556: {65 60} {60 17} 
Flow 2562: {66 60} {60 59} {59 62} {62 4} {4 70} 
Time taken running everything: 614 seconds
