networks/zoo_132_2574/zoo_132_2574.sol
<?xml version = "1.0" encoding="UTF-8" standalone="yes"?>
<CPLEXSolution version="1.2">
 <header
   problemName="networks/zoo_132_2574/zoo_132_2574.lp"
   solutionName="incumbent"
   solutionIndex="-1"
   objectiveValue="68"
   solutionTypeValue="3"
   solutionTypeString="primal"
   solutionStatusValue="107"
   solutionStatusString="time limit exceeded"
   solutionMethodString="mip"
   primalFeasible="1"
   dualFeasible="0"
   MIPNodes="1997"
   MIPIterations="810412"
   writeLevel="3"/>
 <quality
   epInt="1.0000000000000001e-05"
   epRHS="9.9999999999999995e-07"
   maxIntInfeas="1.092459456231154e-13"
   maxPrimalInfeas="5.4622972811557702e-13"
   maxX="4"
   maxSlack="10"/>
 <variables>
  <variable name="Y(108,2)" index="13911" value="1"/>
  <variable name="Y(205,56)" index="26575" value="1"/>
  <variable name="Y(207,59)" index="26838" value="1"/>
  <variable name="Y(211,63)" index="27362" value="1"/>
  <variable name="Y(221,5)" index="28604" value="1"/>
  <variable name="Y(322,37)" index="41766" value="1"/>
  <variable name="Y(364,23)" index="47212" value="1"/>
  <variable name="Y(368,33)" index="47742" value="1"/>
  <variable name="Y(396,27)" index="51376" value="1"/>
  <variable name="Y(412,6)" index="53435" value="1"/>
  <variable name="Y(480,29)" index="62298" value="1.0924594562311535e-13"/>
  <variable name="Y(491,48)" index="63747" value="1"/>
  <variable name="Y(526,30)" index="68279" value="1"/>
  <variable name="Y(560,15)" index="72684" value="1"/>
  <variable name="Y(602,34)" index="78163" value="1"/>
  <variable name="Y(655,45)" index="85064" value="1"/>
  <variable name="Y(657,47)" index="85326" value="1"/>
  <variable name="Y(715,51)" index="92870" value="1"/>
  <variable name="Y(742,25)" index="96354" value="1"/>
  <variable name="Y(817,9)" index="106088" value="1"/>
  <variable name="Y(833,26)" index="108185" value="1"/>
  <variable name="Y(946,58)" index="122907" value="1"/>
  <variable name="Y(953,61)" index="123820" value="1"/>
  <variable name="Y(954,24)" index="123913" value="1"/>
  <variable name="Y(1092,44)" index="141873" value="1"/>
  <variable name="Y(1135,35)" index="147454" value="1"/>
  <variable name="Y(1168,14)" index="151723" value="1"/>
  <variable name="Y(1238,42)" index="160851" value="1"/>
  <variable name="Y(1267,20)" index="164599" value="1"/>
  <variable name="Y(1308,28)" index="169937" value="1"/>
  <variable name="Y(1346,18)" index="174867" value="1"/>
  <variable name="Y(1384,13)" index="179802" value="1"/>
  <variable name="Y(1445,32)" index="187751" value="1"/>
  <variable name="Y(1448,36)" index="188145" value="1"/>
  <variable name="Y(1468,36)" index="190745" value="1"/>
  <variable name="Y(1515,46)" index="196865" value="1"/>
  <variable name="Y(1577,65)" index="204944" value="1"/>
  <variable name="Y(1585,17)" index="205936" value="1"/>
  <variable name="Y(1615,29)" index="209848" value="1"/>
  <variable name="Y(1654,19)" index="214908" value="1"/>
  <variable name="Y(1668,50)" index="216759" value="1"/>
  <variable name="Y(1700,31)" index="220900" value="1"/>
  <variable name="Y(1730,8)" index="224777" value="1"/>
  <variable name="Y(1745,29)" index="226748" value="-1.0924594562311538e-13"/>
  <variable name="Y(1778,16)" index="231025" value="1"/>
  <variable name="Y(1838,43)" index="238852" value="1"/>
  <variable name="Y(1948,53)" index="253162" value="1"/>
  <variable name="Y(1960,7)" index="254676" value="1"/>
  <variable name="Y(1980,62)" index="257331" value="1"/>
  <variable name="Y(1981,1)" index="257400" value="1"/>
  <variable name="Y(2052,52)" index="266681" value="1"/>
  <variable name="Y(2065,11)" index="268330" value="1"/>
  <variable name="Y(2075,5)" index="269624" value="1"/>
  <variable name="Y(2138,55)" index="277864" value="1"/>
  <variable name="Y(2157,21)" index="280300" value="1"/>
  <variable name="Y(2205,66)" index="286585" value="1"/>
  <variable name="Y(2254,64)" index="292953" value="1"/>
  <variable name="Y(2277,60)" index="295939" value="1"/>
  <variable name="Y(2319,39)" index="301378" value="1"/>
  <variable name="Y(2320,41)" index="301510" value="1"/>
  <variable name="Y(2342,3)" index="304332" value="1"/>
  <variable name="Y(2363,24)" index="307083" value="1"/>
  <variable name="Y(2378,40)" index="309049" value="1"/>
  <variable name="Y(2423,22)" index="314881" value="1"/>
  <variable name="Y(2438,38)" index="316847" value="1"/>
  <variable name="Y(2449,49)" index="318288" value="1"/>
  <variable name="Y(2471,10)" index="321109" value="1"/>
  <variable name="Y(2516,12)" index="326961" value="1"/>
  <variable name="Y(2556,60)" index="332209" value="1"/>
  <variable name="Y(2562,4)" index="332933" value="1"/>
  <variable name="X(1,4,491)" index="335110" value="1"/>
  <variable name="X(1,7,2052)" index="339245" value="1"/>
  <variable name="X(1,12,2516)" index="342283" value="1"/>
  <variable name="X(1,51,715)" index="343056" value="1"/>
  <variable name="X(1,67,1981)" index="346896" value="1"/>
  <variable name="X(2,4,412)" index="347901" value="1"/>
  <variable name="X(2,7,657)" index="350720" value="1"/>
  <variable name="X(2,8,1730)" index="354367" value="1"/>
  <variable name="X(2,19,2378)" index="357589" value="1"/>
  <variable name="X(2,20,1615)" index="359400" value="1"/>
  <variable name="X(2,21,2157)" index="362516" value="1"/>
  <variable name="X(2,22,2423)" index="365356" value="1"/>
  <variable name="X(2,46,368)" index="365875" value="1"/>
  <variable name="X(2,62,946)" index="369027" value="1"/>
  <variable name="X(2,68,108)" index="370763" value="1"/>
  <variable name="X(3,62,108)" index="373337" value="1"/>
  <variable name="X(3,69,2342)" index="378145" value="1"/>
  <variable name="X(4,1,1981)" index="380358" value="1"/>
  <variable name="X(4,2,2157)" index="383108" value="1"/>
  <variable name="X(4,6,412)" index="383937" value="1"/>
  <variable name="X(4,11,491)" index="386590" value="1"/>
  <variable name="X(4,49,2449)" index="391122" value="1"/>
  <variable name="X(4,62,1980)" index="393227" value="1"/>
  <variable name="X(4,70,2562)" index="396383" value="1"/>
  <variable name="X(5,7,953)" index="397348" value="1"/>
  <variable name="X(5,8,221)" index="399190" value="1"/>
  <variable name="X(5,23,364)" index="401907" value="1"/>
  <variable name="X(5,24,2363)" index="406480" value="1"/>
  <variable name="X(5,71,2075)" index="408766" value="1"/>
  <variable name="X(6,4,1981)" index="411246" value="1"/>
  <variable name="X(6,50,1668)" index="413507" value="1"/>
  <variable name="X(6,72,412)" index="414825" value="1"/>
  <variable name="X(7,1,2516)" index="419503" value="1"/>
  <variable name="X(7,2,2378)" index="421939" value="1"/>
  <variable name="X(7,5,2075)" index="424210" value="1"/>
  <variable name="X(7,11,2065)" index="426774" value="1"/>
  <variable name="X(7,47,657)" index="427940" value="1"/>
  <variable name="X(7,52,2052)" index="431909" value="1"/>
  <variable name="X(7,53,1948)" index="434379" value="1"/>
  <variable name="X(7,61,953)" index="435958" value="1"/>
  <variable name="X(7,73,1960)" index="439539" value="1"/>
  <variable name="X(8,2,368)" index="440521" value="1"/>
  <variable name="X(8,5,364)" index="443091" value="1"/>
  <variable name="X(8,74,1730)" index="447031" value="1"/>
  <variable name="X(9,46,396)" index="448271" value="1"/>
  <variable name="X(9,75,817)" index="451266" value="1"/>
  <variable name="X(10,46,412)" index="453435" value="1"/>
  <variable name="X(10,76,2471)" index="458068" value="1"/>
  <variable name="X(11,4,2157)" index="460328" value="1"/>
  <variable name="X(11,7,1960)" index="462705" value="1"/>
  <variable name="X(11,48,491)" index="463810" value="1"/>
  <variable name="X(11,55,2138)" index="468031" value="1"/>
  <variable name="X(11,77,2065)" index="470532" value="1"/>
  <variable name="X(12,1,491)" index="471532" value="1"/>
  <variable name="X(12,78,2516)" index="476131" value="1"/>
  <variable name="X(13,20,526)" index="476715" value="1"/>
  <variable name="X(13,79,1384)" index="480147" value="1"/>
  <variable name="X(14,20,560)" index="481897" value="1"/>
  <variable name="X(14,80,1168)" index="485079" value="1"/>
  <variable name="X(15,20,602)" index="487087" value="1"/>
  <variable name="X(15,81,560)" index="489619" value="1"/>
  <variable name="X(16,20,657)" index="492290" value="1"/>
  <variable name="X(16,82,1778)" index="495985" value="1"/>
  <variable name="X(17,18,1346)" index="498127" value="1"/>
  <variable name="X(17,19,2320)" index="501675" value="1"/>
  <variable name="X(17,26,742)" index="502671" value="1"/>
  <variable name="X(17,39,2319)" index="506822" value="1"/>
  <variable name="X(17,60,1577)" index="508654" value="1"/>
  <variable name="X(17,83,1585)" index="511236" value="1"/>
  <variable name="X(18,17,742)" index="512967" value="1"/>
  <variable name="X(18,84,1346)" index="516145" value="1"/>
  <variable name="X(19,2,1615)" index="518988" value="1"/>
  <variable name="X(19,17,1577)" index="521524" value="1"/>
  <variable name="X(19,38,2438)" index="524959" value="1"/>
  <variable name="X(19,40,2378)" index="527473" value="1"/>
  <variable name="X(19,41,2320)" index="529989" value="1"/>
  <variable name="X(19,85,1654)" index="531897" value="1"/>
  <variable name="X(20,2,657)" index="533474" value="1"/>
  <variable name="X(20,13,1384)" index="536775" value="1"/>
  <variable name="X(20,14,1168)" index="539133" value="1"/>
  <variable name="X(20,15,560)" index="541099" value="1"/>
  <variable name="X(20,16,1778)" index="544891" value="1"/>
  <variable name="X(20,21,1238)" index="546925" value="1"/>
  <variable name="X(20,26,602)" index="548863" value="1"/>
  <variable name="X(20,29,480)" index="551315" value="1.0924594562311538e-13"/>
  <variable name="X(20,29,1615)" index="552450" value="1"/>
  <variable name="X(20,29,1745)" index="552580" value="-1.092459456231154e-13"/>
  <variable name="X(20,30,526)" index="553935" value="1"/>
  <variable name="X(20,31,1700)" index="557683" value="1"/>
  <variable name="X(20,44,1092)" index="559649" value="1"/>
  <variable name="X(20,46,817)" index="561948" value="1"/>
  <variable name="X(20,86,1267)" index="564972" value="1"/>
  <variable name="X(21,2,1730)" index="568009" value="1"/>
  <variable name="X(21,20,1700)" index="570553" value="1"/>
  <variable name="X(21,42,1238)" index="572665" value="1"/>
  <variable name="X(21,43,1838)" index="575839" value="1"/>
  <variable name="X(21,45,655)" index="577230" value="1"/>
  <variable name="X(21,87,2157)" index="581306" value="1"/>
  <variable name="X(22,2,946)" index="582669" value="1"/>
  <variable name="X(22,88,2423)" index="586720" value="1"/>
  <variable name="X(23,5,953)" index="587824" value="1"/>
  <variable name="X(23,89,364)" index="589809" value="1"/>
  <variable name="X(24,5,954)" index="592973" value="1"/>
  <variable name="X(24,90,2363)" index="596956" value="1"/>
  <variable name="X(25,26,1445)" index="598612" value="1"/>
  <variable name="X(25,35,1135)" index="600876" value="1"/>
  <variable name="X(25,46,1448)" index="603763" value="1"/>
  <variable name="X(25,91,742)" index="605631" value="1"/>
  <variable name="X(26,17,1346)" index="608809" value="1"/>
  <variable name="X(26,20,1384)" index="611421" value="1"/>
  <variable name="X(26,25,742)" index="613353" value="1"/>
  <variable name="X(26,32,1445)" index="616630" value="1"/>
  <variable name="X(26,33,368)" index="618127" value="1"/>
  <variable name="X(26,34,602)" index="620935" value="1"/>
  <variable name="X(26,46,1308)" index="624215" value="1"/>
  <variable name="X(26,92,833)" index="626314" value="1"/>
  <variable name="X(27,46,1092)" index="629147" value="1"/>
  <variable name="X(27,93,396)" index="631025" value="1"/>
  <variable name="X(28,46,1135)" index="634338" value="1"/>
  <variable name="X(28,94,1308)" index="637085" value="1"/>
  <variable name="X(29,20,1168)" index="639519" value="1"/>
  <variable name="X(29,95,480)" index="641405" value="1.0924594562311535e-13"/>
  <variable name="X(29,95,1615)" index="642540" value="1"/>
  <variable name="X(29,95,1745)" index="642670" value="-1.0924594562311538e-13"/>
  <variable name="X(30,20,1238)" index="644737" value="1"/>
  <variable name="X(30,96,526)" index="646599" value="1"/>
  <variable name="X(31,20,1267)" index="649914" value="1"/>
  <variable name="X(31,97,1700)" index="652921" value="1"/>
  <variable name="X(32,26,1308)" index="655103" value="1"/>
  <variable name="X(32,98,1445)" index="657814" value="1"/>
  <variable name="X(33,26,1346)" index="660289" value="1"/>
  <variable name="X(33,99,368)" index="661885" value="1"/>
  <variable name="X(34,26,1384)" index="665475" value="1"/>
  <variable name="X(34,100,602)" index="667267" value="1"/>
  <variable name="X(35,25,1445)" index="670684" value="1"/>
  <variable name="X(35,101,1135)" index="672948" value="1"/>
  <variable name="X(36,46,1468)" index="675855" value="1"/>
  <variable name="X(36,102,1448)" index="678409" value="1"/>
  <variable name="X(37,46,1515)" index="681050" value="1"/>
  <variable name="X(37,103,322)" index="682431" value="1"/>
  <variable name="X(38,19,1577)" index="686260" value="1"/>
  <variable name="X(38,104,2438)" index="689695" value="1"/>
  <variable name="X(39,17,1585)" index="691416" value="1"/>
  <variable name="X(39,105,2319)" index="694724" value="1"/>
  <variable name="X(40,19,1615)" index="696594" value="1"/>
  <variable name="X(40,106,2378)" index="699931" value="1"/>
  <variable name="X(41,19,1654)" index="701781" value="1"/>
  <variable name="X(41,107,2320)" index="705021" value="1"/>
  <variable name="X(42,21,1700)" index="706975" value="1"/>
  <variable name="X(42,108,1238)" index="709087" value="1"/>
  <variable name="X(43,21,1730)" index="712153" value="1"/>
  <variable name="X(43,109,1838)" index="714835" value="1"/>
  <variable name="X(44,20,1778)" index="717349" value="1"/>
  <variable name="X(44,110,1092)" index="719237" value="1"/>
  <variable name="X(45,21,1838)" index="722557" value="1"/>
  <variable name="X(45,111,655)" index="723948" value="1"/>
  <variable name="X(46,2,412)" index="726279" value="1"/>
  <variable name="X(46,9,817)" index="729258" value="1"/>
  <variable name="X(46,10,2471)" index="733486" value="1"/>
  <variable name="X(46,20,1092)" index="734681" value="1"/>
  <variable name="X(46,25,1135)" index="737298" value="1"/>
  <variable name="X(46,26,368)" index="739105" value="1"/>
  <variable name="X(46,27,396)" index="741707" value="1"/>
  <variable name="X(46,28,1308)" index="745193" value="1"/>
  <variable name="X(46,36,1448)" index="747907" value="1"/>
  <variable name="X(46,37,322)" index="749355" value="1"/>
  <variable name="X(46,63,211)" index="751818" value="1"/>
  <variable name="X(46,112,1515)" index="755696" value="1"/>
  <variable name="X(47,7,1948)" index="758703" value="1"/>
  <variable name="X(47,113,657)" index="759986" value="1"/>
  <variable name="X(48,11,1960)" index="763863" value="1"/>
  <variable name="X(48,114,491)" index="764968" value="1"/>
  <variable name="X(49,4,1980)" index="769031" value="1"/>
  <variable name="X(49,115,2449)" index="772074" value="1"/>
  <variable name="X(50,6,1981)" index="774180" value="1"/>
  <variable name="X(50,116,1668)" index="776441" value="1"/>
  <variable name="X(51,1,2052)" index="779399" value="1"/>
  <variable name="X(51,117,715)" index="780636" value="1"/>
  <variable name="X(52,7,2065)" index="784560" value="1"/>
  <variable name="X(52,118,2052)" index="787121" value="1"/>
  <variable name="X(53,7,2075)" index="789718" value="1"/>
  <variable name="X(53,119,1948)" index="792165" value="1"/>
  <variable name="X(54,11,2138)" index="794929" value="1"/>
  <variable name="X(55,11,2157)" index="797522" value="1"/>
  <variable name="X(55,121,2138)" index="800077" value="1"/>
  <variable name="X(56,61,2205)" index="802718" value="1"/>
  <variable name="X(56,122,205)" index="803292" value="1"/>
  <variable name="X(57,60,2254)" index="807915" value="1"/>
  <variable name="X(58,62,2277)" index="810512" value="1"/>
  <variable name="X(58,124,946)" index="811755" value="1"/>
  <variable name="X(59,60,2277)" index="815660" value="1"/>
  <variable name="X(59,62,2562)" index="818519" value="1"/>
  <variable name="X(59,125,207)" index="818738" value="1"/>
  <variable name="X(60,17,2556)" index="823661" value="1"/>
  <variable name="X(60,59,2562)" index="826241" value="1"/>
  <variable name="X(60,61,2254)" index="828507" value="1"/>
  <variable name="X(60,65,1577)" index="830404" value="1"/>
  <variable name="X(60,66,2205)" index="833606" value="1"/>
  <variable name="X(60,126,2277)" index="836252" value="1"/>
  <variable name="X(61,7,2516)" index="839065" value="1"/>
  <variable name="X(61,56,205)" index="839328" value="1"/>
  <variable name="X(61,60,2205)" index="843902" value="1"/>
  <variable name="X(61,62,2342)" index="846613" value="1"/>
  <variable name="X(61,64,2254)" index="849099" value="1"/>
  <variable name="X(61,127,953)" index="850372" value="1"/>
  <variable name="X(62,2,108)" index="852101" value="1"/>
  <variable name="X(62,3,2342)" index="856909" value="1"/>
  <variable name="X(62,4,2562)" index="859703" value="1"/>
  <variable name="X(62,58,946)" index="860661" value="1"/>
  <variable name="X(62,59,2277)" index="864566" value="1"/>
  <variable name="X(62,61,205)" index="865068" value="1"/>
  <variable name="X(62,128,1980)" index="869417" value="1"/>
  <variable name="X(63,46,2471)" index="872482" value="1"/>
  <variable name="X(63,129,211)" index="872796" value="1"/>
  <variable name="X(64,61,2516)" index="877675" value="1"/>
  <variable name="X(64,130,2254)" index="879987" value="1"/>
  <variable name="X(65,60,2556)" index="882863" value="1"/>
  <variable name="X(65,131,1577)" index="884458" value="1"/>
  <variable name="X(66,60,2562)" index="888017" value="1"/>
  <variable name="X(66,132,2205)" index="890234" value="1"/>
  <variable name="C(108,62)" index="891002" value="1"/>
  <variable name="C(108,2)" index="891003" value="2"/>
  <variable name="C(205,61)" index="891408" value="1"/>
  <variable name="C(205,56)" index="891409" value="2"/>
  <variable name="C(211,63)" index="891428" value="1"/>
  <variable name="C(322,37)" index="891885" value="1"/>
  <variable name="C(364,5)" index="892028" value="1"/>
  <variable name="C(364,23)" index="892029" value="2"/>
  <variable name="C(368,2)" index="892042" value="1"/>
  <variable name="C(368,46)" index="892043" value="2"/>
  <variable name="C(368,26)" index="892044" value="3"/>
  <variable name="C(368,33)" index="892045" value="4"/>
  <variable name="C(396,46)" index="892163" value="1"/>
  <variable name="C(396,27)" index="892164" value="2"/>
  <variable name="C(412,46)" index="892235" value="1"/>
  <variable name="C(412,2)" index="892236" value="2"/>
  <variable name="C(412,4)" index="892237" value="3"/>
  <variable name="C(412,6)" index="892238" value="4"/>
  <variable name="C(480,29)" index="892545" value="1.0924594562311538e-13"/>
  <variable name="C(491,1)" index="892610" value="1"/>
  <variable name="C(491,4)" index="892611" value="2"/>
  <variable name="C(491,11)" index="892612" value="3"/>
  <variable name="C(491,48)" index="892613" value="4"/>
  <variable name="C(526,20)" index="892762" value="1"/>
  <variable name="C(526,30)" index="892763" value="2"/>
  <variable name="C(560,20)" index="892918" value="1"/>
  <variable name="C(560,15)" index="892919" value="2"/>
  <variable name="C(602,20)" index="893092" value="1"/>
  <variable name="C(602,26)" index="893093" value="2"/>
  <variable name="C(602,34)" index="893094" value="3"/>
  <variable name="C(655,45)" index="893322" value="1"/>
  <variable name="C(657,20)" index="893327" value="1"/>
  <variable name="C(657,2)" index="893328" value="2"/>
  <variable name="C(657,7)" index="893329" value="3"/>
  <variable name="C(657,47)" index="893330" value="4"/>
  <variable name="C(715,51)" index="893587" value="1"/>
  <variable name="C(742,17)" index="893710" value="1"/>
  <variable name="C(742,26)" index="893711" value="2"/>
  <variable name="C(742,25)" index="893712" value="3"/>
  <variable name="C(817,46)" index="894014" value="1"/>
  <variable name="C(817,9)" index="894015" value="2"/>
  <variable name="C(946,2)" index="894492" value="1"/>
  <variable name="C(946,62)" index="894493" value="2"/>
  <variable name="C(946,58)" index="894494" value="3"/>
  <variable name="C(953,5)" index="894524" value="1"/>
  <variable name="C(953,7)" index="894525" value="2"/>
  <variable name="C(953,61)" index="894526" value="3"/>
  <variable name="C(1092,46)" index="895098" value="1"/>
  <variable name="C(1092,20)" index="895099" value="2"/>
  <variable name="C(1092,44)" index="895100" value="3"/>
  <variable name="C(1135,46)" index="895290" value="1"/>
  <variable name="C(1135,25)" index="895291" value="2"/>
  <variable name="C(1135,35)" index="895292" value="3"/>
  <variable name="C(1168,20)" index="895447" value="1"/>
  <variable name="C(1168,14)" index="895448" value="2"/>
  <variable name="C(1238,20)" index="895747" value="1"/>
  <variable name="C(1238,21)" index="895748" value="2"/>
  <variable name="C(1238,42)" index="895749" value="3"/>
  <variable name="C(1267,20)" index="895879" value="1"/>
  <variable name="C(1308,26)" index="896072" value="1"/>
  <variable name="C(1308,46)" index="896073" value="2"/>
  <variable name="C(1308,28)" index="896074" value="3"/>
  <variable name="C(1346,26)" index="896257" value="1"/>
  <variable name="C(1346,17)" index="896258" value="2"/>
  <variable name="C(1346,18)" index="896259" value="3"/>
  <variable name="C(1384,26)" index="896444" value="1"/>
  <variable name="C(1384,20)" index="896445" value="2"/>
  <variable name="C(1384,13)" index="896446" value="3"/>
  <variable name="C(1445,25)" index="896737" value="1"/>
  <variable name="C(1445,26)" index="896738" value="2"/>
  <variable name="C(1445,32)" index="896739" value="3"/>
  <variable name="C(1448,46)" index="896750" value="1"/>
  <variable name="C(1448,36)" index="896751" value="2"/>
  <variable name="C(1515,46)" index="897058" value="1"/>
  <variable name="C(1577,19)" index="897363" value="1"/>
  <variable name="C(1577,17)" index="897364" value="2"/>
  <variable name="C(1577,60)" index="897365" value="3"/>
  <variable name="C(1577,65)" index="897366" value="4"/>
  <variable name="C(1585,17)" index="897405" value="1"/>
  <variable name="C(1615,19)" index="897537" value="1"/>
  <variable name="C(1615,2)" index="897538" value="2"/>
  <variable name="C(1615,20)" index="897539" value="3"/>
  <variable name="C(1615,29)" index="897540" value="4"/>
  <variable name="C(1654,19)" index="897727" value="1"/>
  <variable name="C(1668,50)" index="897797" value="1"/>
  <variable name="C(1700,21)" index="897941" value="1"/>
  <variable name="C(1700,20)" index="897942" value="2"/>
  <variable name="C(1700,31)" index="897943" value="3"/>
  <variable name="C(1730,21)" index="898091" value="1"/>
  <variable name="C(1730,2)" index="898092" value="2"/>
  <variable name="C(1730,8)" index="898093" value="3"/>
  <variable name="C(1745,29)" index="898162" value="-1.092459456231154e-13"/>
  <variable name="C(1778,20)" index="898316" value="1"/>
  <variable name="C(1778,16)" index="898317" value="2"/>
  <variable name="C(1838,21)" index="898588" value="1"/>
  <variable name="C(1838,43)" index="898589" value="2"/>
  <variable name="C(1948,7)" index="899029" value="1"/>
  <variable name="C(1948,53)" index="899030" value="2"/>
  <variable name="C(1960,11)" index="899077" value="1"/>
  <variable name="C(1960,7)" index="899078" value="2"/>
  <variable name="C(1980,4)" index="899156" value="1"/>
  <variable name="C(1980,62)" index="899157" value="2"/>
  <variable name="C(1981,50)" index="899158" value="1"/>
  <variable name="C(1981,6)" index="899159" value="2"/>
  <variable name="C(1981,4)" index="899160" value="3"/>
  <variable name="C(1981,1)" index="899161" value="4"/>
  <variable name="C(2052,1)" index="899549" value="1"/>
  <variable name="C(2052,7)" index="899550" value="2"/>
  <variable name="C(2052,52)" index="899551" value="3"/>
  <variable name="C(2065,7)" index="899603" value="1"/>
  <variable name="C(2065,11)" index="899604" value="2"/>
  <variable name="C(2075,7)" index="899640" value="1"/>
  <variable name="C(2075,5)" index="899641" value="2"/>
  <variable name="C(2138,11)" index="899949" value="1"/>
  <variable name="C(2138,55)" index="899950" value="2"/>
  <variable name="C(2157,11)" index="900036" value="1"/>
  <variable name="C(2157,4)" index="900037" value="2"/>
  <variable name="C(2157,2)" index="900038" value="3"/>
  <variable name="C(2157,21)" index="900039" value="4"/>
  <variable name="C(2205,61)" index="900274" value="1"/>
  <variable name="C(2205,60)" index="900275" value="2"/>
  <variable name="C(2205,66)" index="900276" value="3"/>
  <variable name="C(2254,60)" index="900536" value="1"/>
  <variable name="C(2254,61)" index="900537" value="2"/>
  <variable name="C(2254,64)" index="900538" value="3"/>
  <variable name="C(2277,62)" index="900637" value="1"/>
  <variable name="C(2277,59)" index="900638" value="2"/>
  <variable name="C(2277,60)" index="900639" value="3"/>
  <variable name="C(2319,39)" index="900816" value="1"/>
  <variable name="C(2320,19)" index="900819" value="1"/>
  <variable name="C(2320,41)" index="900820" value="2"/>
  <variable name="C(2342,62)" index="900909" value="1"/>
  <variable name="C(2342,3)" index="900910" value="2"/>
  <variable name="C(2363,24)" index="900994" value="1"/>
  <variable name="C(2378,2)" index="901066" value="1"/>
  <variable name="C(2378,19)" index="901067" value="2"/>
  <variable name="C(2378,40)" index="901068" value="3"/>
  <variable name="C(2423,22)" index="901226" value="1"/>
  <variable name="C(2438,38)" index="901292" value="1"/>
  <variable name="C(2449,49)" index="901335" value="1"/>
  <variable name="C(2471,46)" index="901414" value="1"/>
  <variable name="C(2471,10)" index="901415" value="1.9999999999999998"/>
  <variable name="C(2516,61)" index="901615" value="1"/>
  <variable name="C(2516,7)" index="901616" value="2"/>
  <variable name="C(2516,1)" index="901617" value="3"/>
  <variable name="C(2516,12)" index="901618" value="4"/>
  <variable name="C(2556,60)" index="901815" value="1"/>
  <variable name="C(2562,60)" index="901843" value="1"/>
  <variable name="C(2562,59)" index="901844" value="2"/>
  <variable name="C(2562,62)" index="901845" value="3"/>
  <variable name="C(2562,4)" index="901846" value="4"/>
 </variables>
</CPLEXSolution>
